%block LATTICE_CART
ang
17.147479 -0.001716 -0.000000
-0.001691 16.965733 0.000000
0.000000 -0.000000 14.000000
%endblock LATTICE_CART

%block POSITIONS_FRAC
  C 0.000000000 0.000000000 0.500000000
  C 0.142806041 0.000000000 0.500000000
  C 0.285663184 0.000000000 0.500000000
  C 0.428520327 0.000000000 0.500000000
  C 0.571377470 0.000000000 0.500000000
  C 0.714234613 0.000000000 0.500000000
  C 0.857091756 0.000000000 0.500000000
  C 0.071479673 0.041693911 0.500000000
  C 0.214336816 0.041693911 0.500000000
  C 0.357193959 0.041693911 0.500000000
  C 0.500051102 0.041693911 0.500000000
  C 0.642908244 0.041693911 0.500000000
  C 0.785765387 0.041693911 0.500000000
  C 0.928622530 0.041693911 0.500000000
  C 0.071377470 0.124972756 0.500000000
  C 0.214234613 0.124972756 0.500000000
  C 0.357091756 0.124972756 0.500000000
  C 0.499948898 0.124972756 0.500000000
  C 0.642806041 0.124972756 0.500000000
  C 0.785663184 0.124972756 0.500000000
  C 0.928520327 0.124972756 0.500000000
  C 0.000051102 0.166693911 0.500000000
  C 0.142908244 0.166693911 0.500000000
  C 0.285765387 0.166693911 0.500000000
  C 0.428622530 0.166693911 0.500000000
  C 0.571479673 0.166693911 0.500000000
  C 0.714336816 0.166693911 0.500000000
  C 0.857193959 0.166693911 0.500000000
  C 0.000000000 0.249972756 0.500000000
  C 0.142806041 0.249972756 0.500000000
  C 0.285663184 0.249972756 0.500000000
  C 0.428520327 0.249972756 0.500000000
  C 0.571377470 0.249972756 0.500000000
  C 0.714234613 0.249972756 0.500000000
  C 0.857091756 0.249972756 0.500000000
  C 0.071479673 0.291693911 0.500000000
  C 0.214336816 0.291693911 0.500000000
  C 0.357193959 0.291693911 0.500000000
  C 0.500051102 0.291693911 0.500000000
  C 0.642908244 0.291693911 0.500000000
  C 0.785765387 0.291693911 0.500000000
  C 0.928622530 0.291693911 0.500000000
  C 0.071377470 0.374972756 0.500000000
  C 0.214234613 0.374972756 0.500000000
  C 0.357091756 0.374972756 0.500000000
  C 0.499948898 0.374972756 0.500000000
  C 0.642806041 0.374972756 0.500000000
  C 0.785663184 0.374972756 0.500000000
  C 0.928520327 0.374972756 0.500000000
  C 0.000051102 0.416693911 0.500000000
  C 0.142908244 0.416693911 0.500000000
  C 0.285765387 0.416693911 0.500000000
  C 0.428622530 0.416693911 0.500000000
  C 0.571479673 0.416693911 0.500000000
  C 0.714336816 0.416693911 0.500000000
  C 0.857193959 0.416693911 0.500000000
  C 0.000000000 0.499972756 0.500000000
  C 0.142806041 0.499972756 0.500000000
  C 0.285663184 0.499972756 0.500000000
  C 0.428520327 0.499972756 0.500000000
  C 0.571377470 0.499972756 0.500000000
  C 0.714234613 0.499972756 0.500000000
  C 0.857091756 0.499972756 0.500000000
  C 0.071479673 0.541693911 0.500000000
  C 0.214336816 0.541693911 0.500000000
  C 0.357193959 0.541693911 0.500000000
  C 0.500051102 0.541693911 0.500000000
  C 0.642908244 0.541693911 0.500000000
  C 0.785765387 0.541693911 0.500000000
  C 0.928622530 0.541693911 0.500000000
  C 0.071377470 0.624972756 0.500000000
  C 0.214234613 0.624972756 0.500000000
  C 0.357091756 0.624972756 0.500000000
  C 0.499948898 0.624972756 0.500000000
  C 0.642806041 0.624972756 0.500000000
  C 0.785663184 0.624972756 0.500000000
  C 0.928520327 0.624972756 0.500000000
  C 0.000051102 0.666693911 0.500000000
  C 0.142908244 0.666693911 0.500000000
  C 0.285765387 0.666693911 0.500000000
  C 0.428622530 0.666693911 0.500000000
  C 0.571479673 0.666693911 0.500000000
  C 0.714336816 0.666693911 0.500000000
  C 0.857193959 0.666693911 0.500000000
  C 0.000000000 0.749972756 0.500000000
  C 0.142806041 0.749972756 0.500000000
  C 0.285663184 0.749972756 0.500000000
  C 0.428520327 0.749972756 0.500000000
  C 0.571377470 0.749972756 0.500000000
  C 0.714234613 0.749972756 0.500000000
  C 0.857091756 0.749972756 0.500000000
  C 0.071479673 0.791693911 0.500000000
  C 0.214336816 0.791693911 0.500000000
  C 0.357193959 0.791693911 0.500000000
  C 0.500051102 0.791693911 0.500000000
  C 0.642908244 0.791693911 0.500000000
  C 0.785765387 0.791693911 0.500000000
  C 0.928622530 0.791693911 0.500000000
  C 0.071377470 0.874972756 0.500000000
  C 0.214234613 0.874972756 0.500000000
  C 0.357091756 0.874972756 0.500000000
  C 0.499948898 0.874972756 0.500000000
  C 0.642806041 0.874972756 0.500000000
  C 0.785663184 0.874972756 0.500000000
  C 0.928520327 0.874972756 0.500000000
  C 0.000051102 0.916693911 0.500000000
  C 0.142908244 0.916693911 0.500000000
  C 0.285765387 0.916693911 0.500000000
  C 0.428622530 0.916693911 0.500000000
  C 0.571479673 0.916693911 0.500000000
  C 0.714336816 0.916693911 0.500000000
  C 0.857193959 0.916693911 0.500000000
%endblock POSITIONS_FRAC
